
  32    1
  10

   0   0  11 2 3 4 5 7 8 10 12 13 16 20 
   7   1   4 25 14 9 6 
   3   2   9 31 30 28 27 26 25 22 19 15 
   9   1   8 29 28 27 24 22 19 17 11 
   4   2   7 29 28 24 19 18 17 11 
  10   3   8 30 29 28 26 24 23 18 17 
   3   4   6 30 29 27 21 18 11 
   1   1   6 29 27 26 24 22 21 
   3   2   5 28 24 23 22 17 
   7   1   4 27 25 24 21 
   2   1   3 26 25 23 
   6   2   3 25 24 22 
   8   4   3 23 22 21 
   8   2   2 27 18 
   6   1   2 23 17 
   2   1   2 23 21 
   3   4   1 21 
   2   3   1 22 
   5   1   1 21 
   3   1   1 21 
   2   1   1 32
   7   1   1 32
   1   2   1 32
   4   2   1 32
   5   2   1 32
   7   2   1 32
   7   2   1 32
   4   3   1 32
   6   1   1 32
  10   5   1 32
   7   2   1 32
   0   0   0 
